c Random 7-CNF over 30 variables and 90 clauses
c Generated with `cnfgen`
c (C) 2012-2016 Massimo Lauria <lauria.massimo@gmail.com>
c https://massimolauria.github.io/cnfgen
c
c COMMAND LINE: cnfgen --output tmp-7-30-90.dimacs --output-format dimacs randkcnf 7 30 90
c
c sdimacs generated by gen-sdimacs
c
p cnf 30 90
r 0.5 1 2 3 4 5 6 7 8 9 10 11 12 13 14 15 0
e  16 17 18 19 20 21 22 23 24 25 26 27 28 29 30 0
-10 11 -13 17 19 20 29 0
-4 14 21 -24 27 -28 29 0
7 -10 -13 -16 -17 -26 -29 0
6 8 -9 -24 25 28 29 0
1 3 4 6 -10 19 30 0
-6 -7 -9 -10 -26 27 -29 0
-8 -12 16 19 -22 27 -30 0
7 8 9 -11 17 21 -22 0
-1 -11 13 15 21 -23 -29 0
-4 -9 13 14 -15 29 -30 0
3 -6 11 13 21 -25 -29 0
4 -8 13 18 -23 -25 30 0
3 4 -9 -11 19 26 30 0
-3 -4 5 13 16 25 28 0
2 -6 7 9 10 -16 -18 0
1 3 4 -6 14 18 20 0
-1 3 -11 -15 -19 22 30 0
-1 3 11 13 -18 22 -28 0
-2 -7 12 26 27 28 30 0
-6 9 12 -15 24 25 -27 0
-3 -4 9 -15 22 26 -30 0
8 -10 -16 18 -21 -25 27 0
-9 -15 -16 19 21 23 -24 0
2 -4 9 10 -14 19 -25 0
2 4 10 -16 23 -24 -28 0
-3 -10 15 21 -25 -26 -29 0
2 -14 20 -27 -28 29 30 0
-3 -4 -11 13 16 -18 19 0
7 9 11 12 -24 -27 28 0
-9 12 -15 -17 -19 21 23 0
-7 -9 -12 -17 19 26 27 0
1 7 9 11 12 13 19 0
4 -16 -19 22 -24 -28 29 0
6 -7 10 13 -14 -26 -27 0
7 -9 -15 17 19 -22 27 0
2 -8 -10 13 18 23 -29 0
-4 -14 -20 26 27 -28 29 0
-6 -10 16 -17 18 26 -29 0
1 -7 -10 -11 -21 -24 -27 0
-4 7 9 11 16 -17 -18 0
6 9 14 21 -23 25 -27 0
-2 7 11 12 -13 23 -30 0
-8 12 -14 -20 21 25 -27 0
-4 8 12 13 14 20 26 0
11 -14 16 19 -26 -27 28 0
2 -5 -10 11 14 16 18 0
5 6 -11 12 17 26 -27 0
-4 8 -11 24 -25 -27 29 0
-2 -13 -14 17 -25 26 30 0
-4 5 -11 13 -15 -17 -23 0
7 -12 17 -23 24 27 30 0
1 3 14 16 19 -27 -29 0
7 -17 -18 -20 -23 27 -28 0
2 3 4 -15 -24 -26 30 0
9 10 -12 14 18 23 -28 0
2 -4 7 -9 -15 19 28 0
3 5 -12 -16 -20 -24 -25 0
1 2 -14 16 -20 23 -29 0
-10 -13 -14 -17 25 -29 30 0
1 -3 -7 -14 -15 -21 24 0
-1 -4 -7 -11 15 -28 30 0
-2 -20 23 24 25 26 -30 0
1 -7 8 -14 -15 27 -30 0
3 -7 10 15 17 -24 26 0
-1 4 6 13 -22 25 28 0
4 7 11 16 -17 20 -28 0
2 -6 7 -8 12 -24 30 0
1 -8 -9 -13 15 24 27 0
2 -10 15 16 -21 23 -25 0
6 -7 8 -9 11 15 -22 0
-1 -3 -7 10 -11 21 26 0
-7 -10 13 -19 21 26 -29 0
-6 -10 15 18 -26 28 -30 0
-1 13 -14 22 -25 -27 28 0
-2 4 -8 -14 20 22 25 0
-5 -12 -21 -22 -24 -27 28 0
-2 5 8 -21 -22 27 30 0
2 -5 8 9 11 -23 24 0
3 11 14 -17 -26 -29 -30 0
-1 -6 -7 -9 10 -20 25 0
5 16 -19 -22 24 -25 26 0
-6 15 -18 20 22 23 -27 0
6 -11 -12 -18 -21 23 25 0
1 3 4 -5 -7 23 -28 0
-3 5 -11 12 21 -22 -28 0
-11 16 18 -20 23 -24 -28 0
-4 7 -12 13 21 22 26 0
2 5 -9 -10 12 -15 -22 0
3 7 -10 13 -17 -20 29 0
2 6 -11 -18 -20 -22 28 0
